50
150
99
99
96
93
88
83
82
80
79
79
77
77
75
75
73
73
72
71
71
71
71
69
69
67
62
62
61
58
58
56
54
53
52
49
46
45
45
41
40
39
35
35
34
33
31
27
27
26
22
21
